110 2264
65 107 53 13 41 61 62 5 60 26 19 70 12 43 0 71 46 35 4 96 64 38 25 40 20 23 63 69 24 80 75 50
6 8 59 100 11 27 7 21 2 28 98 14 97 101 1 103 52 58 47 67 105 36 90 76 78 18 54 77 3 56 72 31
39 102 22 108 99 106 89 55 66 49 32 81 92 109 9 45 16 104 74 91 33 83 48 34 15 95 29 93 88 86
85 68 82 30 73 10 79 37 94 17 51 42 87 84 44 57
